p cnf 360 653
4  -1  2  0
7  4  -5  0
-10  7  8  0
13  10  -11  0
-16  -13  -14  0
-19  -16  17  0
-22  -19  -20  0
25  -22  -23  0
31  28  29  0
34  -31  -32  0
-43  40  -41  0
-52  -49  50  0
55  52  53  0
-58  -55  56  0
64  61  -62  0
-67  64  -65  0
70  67  -68  0
-76  -73  74  0
79  76  -77  0
-82  -79  80  0
-88  85  86  0
91  88  89  0
-94  91  92  0
100  -97  98  0
109  106  -107  0
-112  109  110  0
-115  -112  113  0
-118  115  116  0
121  -118  119  0
-127  124  125  0
-130  127  128  0
133  -130  -131  0
136  133  -134  0
139  136  137  0
-151  -148  149  0
154  151  152  0
157  -154  -155  0
-163  160  161  0
-166  -163  -164  0
-172  -169  -170  0
178  -175  176  0
187  184  185  0
-190  -187  -188  0
193  -190  -191  0
196  -193  194  0
-199  -196  -197  0
214  -211  -212  0
217  -214  -215  0
-220  217  218  0
223  -220  -221  0
226  223  -224  0
229  -226  227  0
235  232  233  0
-241  -238  -239  0
244  -241  242  0
-247  244  -245  0
-253  -250  -251  0
256  -253  254  0
-259  256  -257  0
-262  -259  -260  0
-265  -262  -263  0
-268  -265  -266  0
-274  271  272  0
286  283  -284  0
-289  -286  -287  0
-292  -289  -290  0
295  -292  293  0
298  295  -296  0
-304  -301  -302  0
307  304  -305  0
-310  -307  308  0
-319  -316  -317  0
322  319  -320  0
325  -322  -323  0
328  325  -326  0
-331  328  -329  0
334  331  -332  0
343  -340  -341  0
-346  -343  -344  0
-358  -355  -356  0
-5  4  -2  0
5  1  -2  0
-5  2  -3  0
8  -7  5  0
8  4  -5  0
8  -5  -6  0
11  10  8  0
11  10  7  0
-11  8  -9  0
14  -13  10  0
-14  -10  -11  0
17  16  13  0
-17  -13  -14  0
17  14  -15  0
-20  19  -17  0
20  -19  -16  0
-20  -16  17  0
20  -17  18  0
23  22  20  0
23  20  -21  0
26  -22  -23  0
26  23  24  0
-29  28  -26  0
-29  28  25  0
-29  25  26  0
-29  26  -27  0
-32  -31  28  0
-32  28  29  0
-35  34  -32  0
-35  -31  -32  0
-35  32  -33  0
-38  -37  34  0
-38  34  -35  0
-38  -35  -36  0
41  -40  38  0
-41  40  37  0
44  -43  41  0
-44  -43  40  0
44  -41  -42  0
47  -46  -44  0
47  46  43  0
47  43  -44  0
50  -49  47  0
50  -49  -46  0
50  46  -47  0
50  -47  -48  0
53  49  50  0
53  -50  -51  0
-56  -55  -53  0
56  -52  53  0
-59  58  56  0
-59  58  55  0
59  -56  57  0
-62  61  -59  0
62  -61  -58  0
-62  58  -59  0
-62  59  60  0
65  -64  62  0
-65  -61  62  0
-65  -62  -63  0
68  67  65  0
68  -67  64  0
68  64  -65  0
-68  -65  -66  0
71  70  68  0
-71  70  -67  0
71  -67  68  0
71  -68  69  0
-74  73  71  0
74  -70  -71  0
-74  71  -72  0
-77  -74  -75  0
80  -79  77  0
80  79  76  0
80  -77  78  0
-83  -82  -80  0
-83  82  -79  0
83  -79  80  0
-83  -80  -81  0
86  85  82  0
-86  -83  -84  0
-89  -85  86  0
-89  86  -87  0
92  -91  89  0
-92  91  -88  0
92  -88  89  0
-92  89  -90  0
-95  94  92  0
95  -94  91  0
-95  -92  93  0
-98  -97  -95  0
98  97  94  0
-98  -94  -95  0
101  100  -98  0
101  100  97  0
101  -97  -98  0
101  98  99  0
-104  -103  -101  0
104  101  -102  0
107  106  -104  0
-107  106  103  0
107  103  104  0
-107  -104  105  0
-110  -109  -107  0
-110  106  107  0
-113  -112  109  0
-113  -109  -110  0
113  -110  -111  0
-116  -115  113  0
116  115  -112  0
-116  -112  113  0
-116  -113  114  0
-119  118  116  0
-119  -118  -115  0
119  116  -117  0
122  -121  118  0
122  119  120  0
-125  -124  -122  0
125  -121  -122  0
128  127  125  0
-128  -127  -124  0
128  -124  125  0
131  127  -128  0
131  -128  129  0
137  136  134  0
-137  -136  -133  0
137  -133  134  0
-137  134  135  0
-140  139  -137  0
140  -136  -137  0
-143  -142  140  0
143  -142  -139  0
-143  140  -141  0
146  -145  -143  0
146  145  142  0
-146  -142  -143  0
-146  143  144  0
149  148  146  0
149  148  145  0
149  -146  -147  0
-152  -151  -149  0
152  148  149  0
155  -154  151  0
155  151  152  0
-155  -152  -153  0
-158  -157  -154  0
158  154  -155  0
-158  155  -156  0
-161  160  158  0
-161  -160  -157  0
-164  163  -160  0
164  160  -161  0
-164  161  162  0
-167  166  164  0
-167  166  163  0
-167  163  -164  0
167  164  -165  0
170  169  -167  0
-170  169  -166  0
-170  -166  -167  0
173  -172  170  0
-173  -170  -171  0
-176  175  -173  0
176  175  172  0
-176  173  174  0
179  -178  -176  0
-179  -178  -175  0
-179  175  -176  0
179  176  -177  0
182  181  179  0
-185  -184  182  0
185  184  -181  0
-185  181  182  0
185  182  -183  0
188  187  -185  0
-188  -187  -184  0
-188  -184  -185  0
-191  -190  -188  0
-191  190  -187  0
191  187  188  0
191  -188  -189  0
-194  -191  192  0
197  -196  194  0
197  196  193  0
-197  193  -194  0
-197  194  -195  0
200  199  197  0
200  199  196  0
-200  -197  -198  0
203  -202  -200  0
203  202  -199  0
-203  -200  -201  0
206  205  -203  0
206  205  -202  0
-206  203  204  0
-209  208  -205  0
209  205  -206  0
209  206  -207  0
-212  -211  -208  0
212  -208  -209  0
-212  209  210  0
-215  -214  -212  0
215  -211  -212  0
-215  -212  -213  0
218  -217  215  0
218  214  215  0
218  -215  -216  0
-221  220  -217  0
221  -217  218  0
-221  -218  -219  0
-224  223  -221  0
-224  -223  -220  0
-224  220  -221  0
-227  -226  -224  0
227  -224  225  0
-230  229  227  0
-230  -229  226  0
230  226  -227  0
-230  227  -228  0
233  232  230  0
233  -232  229  0
-233  -229  230  0
-236  235  233  0
-236  232  233  0
-236  -233  -234  0
-239  -238  -236  0
239  -235  236  0
242  -241  -239  0
-242  -241  238  0
-242  -238  -239  0
-245  -244  241  0
-245  -241  -242  0
-248  247  -245  0
248  -247  -244  0
-248  -244  -245  0
-248  -245  246  0
251  -250  -248  0
-251  -250  -247  0
-251  247  248  0
-254  -250  -251  0
254  251  252  0
257  256  -253  0
257  253  254  0
-260  259  -257  0
263  -262  260  0
263  -259  -260  0
-266  -265  -263  0
266  265  -262  0
-266  -263  264  0
-269  268  266  0
-269  265  266  0
269  266  -267  0
-272  271  269  0
272  -268  -269  0
-275  274  272  0
-275  274  271  0
275  271  -272  0
-275  -272  273  0
-278  -277  275  0
278  274  275  0
-278  -275  276  0
-281  280  278  0
-281  278  279  0
-284  -283  -281  0
284  283  -280  0
-284  281  -282  0
-287  -286  -283  0
287  -284  -285  0
290  289  287  0
-290  286  -287  0
-290  287  -288  0
293  289  290  0
-293  290  -291  0
-296  -295  293  0
296  -293  294  0
-299  298  296  0
-299  -295  296  0
-299  -296  -297  0
302  301  -298  0
-302  299  -300  0
-305  304  -302  0
-305  -304  301  0
305  -301  302  0
305  302  -303  0
-308  -307  -305  0
308  -307  -304  0
-308  -305  306  0
311  310  -308  0
311  -310  307  0
311  307  308  0
-311  308  309  0
-314  -313  -311  0
-314  -313  -310  0
317  -316  314  0
-317  -316  313  0
317  -313  -314  0
-317  -314  315  0
320  319  -316  0
320  316  -317  0
-323  -322  -319  0
-323  -320  321  0
326  325  -323  0
329  -328  -326  0
329  -328  -325  0
335  331  332  0
335  -332  -333  0
338  -337  -335  0
338  337  -334  0
338  -334  -335  0
-338  -335  -336  0
341  -340  -338  0
-341  -337  -338  0
-341  338  339  0
344  -340  341  0
344  -341  342  0
347  -346  -343  0
-347  343  344  0
-347  -344  345  0
350  349  -346  0
350  346  347  0
-353  352  350  0
-353  -352  -349  0
353  -349  350  0
353  -350  -351  0
356  -355  -353  0
356  352  353  0
-359  -358  356  0
359  -358  355  0
359  -355  -356  0
-359  356  357  0
-6  5  -3  0
-6  -5  2  0
6  2  3  0
-9  -8  6  0
-9  -8  5  0
-12  11  -9  0
12  11  -8  0
-15  -14  -12  0
15  11  12  0
-18  -17  15  0
18  -17  -14  0
21  20  18  0
21  20  -17  0
21  17  18  0
-24  -23  -21  0
-24  -20  -21  0
-30  29  -27  0
33  -32  -29  0
33  -29  30  0
-36  35  -33  0
36  -35  -32  0
36  32  -33  0
-39  -38  -36  0
-39  38  -35  0
39  35  36  0
42  41  -38  0
42  -38  39  0
-45  41  -42  0
-48  47  45  0
-48  47  -44  0
-51  50  -48  0
-51  -50  -47  0
51  47  48  0
54  -53  -51  0
-57  56  -53  0
60  -59  57  0
-60  59  56  0
-63  -62  -60  0
63  -59  60  0
66  -65  63  0
66  62  63  0
69  -68  66  0
-69  -68  -65  0
69  65  -66  0
-72  71  69  0
72  71  -68  0
72  -68  69  0
75  74  -72  0
78  77  -75  0
-78  74  75  0
81  80  -78  0
-81  -80  -77  0
-81  77  -78  0
-84  -83  81  0
-84  -80  -81  0
-87  -86  84  0
-87  -86  -83  0
-90  -89  -87  0
-90  89  86  0
93  92  90  0
-93  92  -89  0
93  -89  90  0
-96  95  -93  0
96  95  -92  0
96  -92  -93  0
99  -98  -96  0
-99  -95  -96  0
102  101  99  0
-102  -101  -98  0
105  104  -102  0
-108  107  -105  0
108  -104  -105  0
-111  110  108  0
114  113  111  0
-114  -113  110  0
114  110  111  0
117  116  -114  0
117  116  -113  0
-117  -113  114  0
120  119  117  0
120  -116  -117  0
123  122  119  0
-126  -125  123  0
-126  125  122  0
-126  -122  123  0
-129  -128  126  0
129  -128  125  0
129  125  126  0
-132  131  -129  0
132  -131  -128  0
-135  134  132  0
-135  -131  132  0
138  -137  135  0
138  137  134  0
138  134  135  0
141  -140  137  0
-141  -137  138  0
-144  143  -141  0
-144  -140  -141  0
147  146  144  0
-150  -149  -147  0
150  149  146  0
150  -146  147  0
-153  152  149  0
-153  -149  -150  0
-156  155  153  0
156  -155  -152  0
156  -152  153  0
-159  -158  -156  0
-159  -158  -155  0
-162  -161  -159  0
162  161  158  0
-162  158  159  0
165  -164  162  0
-165  164  161  0
-165  161  162  0
-168  167  -165  0
-168  164  -165  0
171  170  167  0
-174  173  171  0
174  173  170  0
174  -170  -171  0
-177  176  173  0
-177  -173  174  0
180  179  177  0
-180  -176  -177  0
183  179  -180  0
186  185  182  0
192  -191  -189  0
192  191  188  0
-192  188  189  0
-195  -194  -192  0
-195  194  -191  0
195  191  -192  0
198  197  195  0
198  194  -195  0
201  -200  -198  0
201  200  197  0
201  -197  -198  0
204  -203  201  0
204  -200  -201  0
-207  206  204  0
207  206  203  0
-207  -203  204  0
-210  209  207  0
210  209  -206  0
-210  -206  207  0
-213  -212  210  0
213  -212  209  0
-213  -209  210  0
216  -215  212  0
-216  212  213  0
219  218  216  0
219  -215  216  0
-225  -221  -222  0
-228  227  225  0
228  -227  224  0
228  224  -225  0
231  230  228  0
-231  -230  227  0
-231  -227  -228  0
234  233  231  0
-237  236  -234  0
-237  -233  234  0
-240  -239  -237  0
-240  239  236  0
-240  -236  237  0
243  242  240  0
-246  -245  -242  0
249  -248  246  0
252  -251  248  0
-252  -248  -249  0
-255  254  -252  0
255  -254  251  0
258  -257  255  0
-258  -257  254  0
-258  -254  -255  0
261  260  -258  0
261  -260  257  0
264  263  261  0
264  260  261  0
-267  -266  264  0
267  263  264  0
270  269  267  0
-270  266  -267  0
273  -272  270  0
-273  -269  -270  0
276  -275  -272  0
-279  278  -276  0
282  281  -279  0
282  278  279  0
285  284  282  0
-285  284  -281  0
285  281  -282  0
-288  287  285  0
-288  -287  284  0
-291  290  287  0
291  287  288  0
294  293  -290  0
294  290  -291  0
-297  -296  294  0
300  -299  297  0
300  296  -297  0
303  302  -299  0
303  299  -300  0
306  305  303  0
-306  305  -302  0
-306  302  -303  0
-309  -308  -306  0
-309  -308  305  0
309  -305  306  0
315  -311  -312  0
318  -317  -315  0
-318  317  -314  0
-318  314  315  0
-321  -320  -317  0
-321  317  -318  0
324  -323  321  0
324  323  320  0
324  -320  321  0
-327  -326  324  0
-327  -323  -324  0
330  329  -327  0
330  -329  326  0
330  326  327  0
333  329  -330  0
336  335  333  0
-336  335  332  0
336  -332  333  0
339  -338  336  0
339  338  -335  0
339  335  -336  0
-342  -341  339  0
-342  -341  338  0
-342  -338  -339  0
-345  344  -342  0
-345  344  -341  0
348  -347  -345  0
-351  -350  -348  0
354  -350  351  0
-357  356  -353  0
360  359  -357  0
360  356  357  0
